88
103
157
153
113
225
116
111
137
142
133
179
101
96
187
140
239
216
126
192
130
208
134
115
104
198
158
102
250
291
180
138
168
174
135
158
135
128
122
86
66
122
99
179
183
119
251
199
172
197
125
156
176
270
104
162
0
312
76
102
161
140
145
114
112
282
83
97
119
117
145
256
160
184
156
194
144
109
92
132
149
261
133
125
132
60
164
101
111
141
107
123
89
163
153
120
96
114
217
112
